
param: UGT: a 		b 		c 		Pmin	Pmax:=				#ingresar todos los parametros que dependen del conjunto UGT
		1	1000	16.19	0.00048	150		455
		2	970		17.26	0.00031	150		455
		3	700		16.60	0.00200	20		130
		4	680		16.50	0.00211	20		130
		5	450		19.70	0.00398	25		162
		6	370		22.26	0.00712	20		80
		7	480		27.74	0.00079	25		85
		8	660		25.92	0.00413	10		55
		9	665		27.27	0.00222	10		55
		10	670		27.79	0.00173	10		55;


param D:=1500;
